50 8
524 571
293 679
875 742
861 749
580 80
235 298
745 764
586 576
784 236
533 165
358 497
304 600
326 647
672 607
276 199
893 553
891 806
848 178
851 415
259 411
875 374
411 706
730 613
981 550
301 126
62 752
204 791
787 762
652 551
601 757
501 721
772 60
662 296
174 403
140 708
942 683
736 219
454 121
776 864
466 528
798 209
750 742
40 651
743 800
591 858
340 621
505 843
198 675
351 735
941 404
